(set-logic QF_S)
(declare-fun var0 () String)
(declare-fun var1 () String)
(declare-fun var2 () String)
(declare-fun var3 () String)
(declare-fun var4 () String)
(declare-fun var5 () String)
(declare-fun var6 () String)
(declare-fun var7 () String)
(declare-fun var8 () String)
(declare-fun var9 () String)
(declare-fun var10 () String)
(declare-fun var11 () String)
(declare-fun var12 () String)
(declare-fun var13 () String)
(declare-fun var14 () String)
(declare-fun var15 () String)
(declare-fun var16 () String)
(declare-fun var17 () String)
(declare-fun var18 () String)
(declare-fun var19 () String)
(declare-fun var20 () String)
(declare-fun var21 () String)
(declare-fun var22 () String)
(declare-fun var23 () String)
(declare-fun var24 () String)
(declare-fun var25 () String)
(declare-fun var26 () String)
(declare-fun var27 () String)
(declare-fun var28 () String)
(declare-fun var29 () String)
(declare-fun var30 () String)
(declare-fun var31 () String)
(declare-fun var32 () String)
(declare-fun var33 () String)
(declare-fun var34 () String)
(declare-fun var35 () String)
(declare-fun var36 () String)
(declare-fun var37 () String)
(declare-fun var38 () String)
(declare-fun var39 () String)
(declare-fun var40 () String)
(declare-fun var41 () String)
(declare-fun var42 () String)
(declare-fun var43 () String)
(declare-fun var44 () String)
(declare-fun var45 () String)
(declare-fun var46 () String)
(declare-fun var47 () String)
(declare-fun var48 () String)
(declare-fun var49 () String)
(declare-fun var50 () String)
(declare-fun var51 () String)
(declare-fun var52 () String)
(declare-fun var53 () String)
(declare-fun var54 () String)
(declare-fun var55 () String)
(declare-fun var56 () String)
(declare-fun var57 () String)
(declare-fun var58 () String)
(declare-fun var59 () String)
(declare-fun var60 () String)
(assert (= var0 (str.++ var1 var2)))
(assert (= var2 (str.++ var3 var4)))
(assert (= var4 (str.++ var5 var6)))
(assert (= var6 (str.++ var7 var8)))
(assert (= var8 (str.++ var9 var10)))
(assert (= var10 (str.++ var11 var12)))
(assert (= var12 (str.++ var13 var14)))
(assert (= var14 (str.++ var15 var16)))
(assert (= var16 (str.++ var17 var18)))
(assert (= var18 (str.++ var19 var20)))
(assert (= var20 (str.++ var21 var22)))
(assert (= var22 (str.++ var23 var24)))
(assert (= var24 (str.++ var25 var26)))
(assert (= var26 (str.++ var27 var28)))
(assert (= var28 (str.++ var29 var30)))
(assert (= var30 (str.++ var31 var32)))
(assert (= var32 (str.++ var33 var34)))
(assert (= var34 (str.++ var35 var36)))
(assert (= var36 (str.++ var37 var38)))
(assert (= var38 (str.++ var39 var40)))
(assert (= var40 (str.++ var41 var42)))
(assert (= var42 (str.++ var43 var44)))
(assert (= var44 (str.++ var45 var46)))
(assert (= var46 (str.++ var47 var48)))
(assert (= var48 (str.++ var49 var50)))
(assert (= var50 (str.++ var51 var52)))
(assert (= var52 (str.++ var53 var54)))
(assert (= var54 (str.++ var55 var56)))
(assert (= var56 (str.++ var57 var58)))
(assert (= var58 (str.++ var59 var60)))
(assert (= var0 "solution"))
(assert (= "%" (str.at var34 320)))
(assert (= "$" (str.at var3 119)))
(assert (= "k" (str.at var11 787)))
(assert (= "^" (str.at var29 254)))
(assert (= "s" (str.at var28 631)))
(assert (= "\\" (str.at var19 439)))
(assert (= "f" (str.at var5 752)))
(assert (= "7" (str.at var43 11)))
(assert (= "4" (str.at var3 270)))
(assert (= "I" (str.at var31 996)))
(assert (= "z" (str.at var56 717)))
(assert (= "9" (str.at var30 745)))
(assert (= "V" (str.at var48 547)))
(assert (= "*" (str.at var47 617)))
(assert (= "|" (str.at var49 586)))
(assert (= "8" (str.at var9 258)))
(assert (= "=" (str.at var12 450)))
(assert (= "H" (str.at var29 80)))
(assert (= "M" (str.at var29 38)))
(assert (= "@" (str.at var55 232)))
(assert (= "O" (str.at var60 382)))
(assert (= "<" (str.at var41 937)))
(assert (= "_" (str.at var55 43)))
(assert (= "6" (str.at var50 429)))
(assert (= "B" (str.at var5 67)))
(assert (= "o" (str.at var26 486)))
(assert (= "P" (str.at var55 249)))
(assert (= "H" (str.at var17 479)))
(assert (= "G" (str.at var36 484)))
(assert (= "I" (str.at var37 471)))
(assert (= "H" (str.at var19 547)))
(assert (= "G" (str.at var50 156)))
(assert (= "f" (str.at var11 185)))
(assert (= "w" (str.at var12 540)))
(assert (= "u" (str.at var9 814)))
(assert (= "h" (str.at var36 401)))
(assert (= "}" (str.at var13 495)))
(assert (= "l" (str.at var1 415)))
(assert (= "v" (str.at var48 122)))
(assert (= "|" (str.at var12 761)))
(assert (= "K" (str.at var27 810)))
(assert (= "l" (str.at var17 210)))
(assert (= "W" (str.at var20 991)))
(assert (= "," (str.at var60 692)))
(assert (= "l" (str.at var19 766)))
(assert (= "^" (str.at var1 806)))
(assert (= "s" (str.at var34 8)))
(assert (= "@" (str.at var43 240)))
(assert (= "o" (str.at var39 501)))
(assert (= "N" (str.at var2 183)))
(assert (= "f" (str.at var48 511)))
(assert (= "," (str.at var53 325)))
(assert (= "B" (str.at var47 501)))
(assert (= "%" (str.at var16 512)))
(assert (= "r" (str.at var47 517)))
(assert (= "b" (str.at var25 720)))
(assert (= "k" (str.at var12 148)))
(assert (= "F" (str.at var5 852)))
(assert (= "Y" (str.at var2 263)))
(assert (= "s" (str.at var44 704)))
(assert (= "d" (str.at var22 149)))
(assert (= "R" (str.at var50 838)))
(assert (= "A" (str.at var58 761)))
(assert (= "O" (str.at var15 22)))
(assert (= "g" (str.at var14 105)))
(assert (= "^" (str.at var60 126)))
(assert (= "T" (str.at var52 757)))
(assert (= "5" (str.at var8 786)))
(assert (= "@" (str.at var57 94)))
(assert (= "f" (str.at var51 42)))
(assert (= "`" (str.at var59 770)))
(assert (= "<" (str.at var56 175)))
(assert (= "a" (str.at var6 102)))
(assert (= "*" (str.at var20 285)))
(assert (= "x" (str.at var19 105)))
(assert (= "m" (str.at var38 358)))
(assert (= "]" (str.at var7 526)))
(assert (= "@" (str.at var39 183)))
(assert (= "." (str.at var3 172)))
(assert (= "H" (str.at var36 425)))
(assert (= "7" (str.at var20 552)))
(assert (= "S" (str.at var6 468)))
(assert (= "N" (str.at var17 224)))
(assert (= "6" (str.at var12 201)))
(assert (= "R" (str.at var37 698)))
(assert (= "v" (str.at var10 361)))
(assert (= "H" (str.at var5 113)))
(assert (= ">" (str.at var20 562)))
(assert (= "z" (str.at var9 629)))
(assert (= "[" (str.at var8 620)))
(assert (= "x" (str.at var12 12)))
(assert (= "[" (str.at var46 714)))
(assert (= ")" (str.at var10 227)))
(assert (= "8" (str.at var48 569)))
(assert (= "!" (str.at var31 578)))
(assert (= "p" (str.at var17 162)))
(assert (= "&" (str.at var31 422)))
(assert (= ">" (str.at var7 411)))
(assert (= "l" (str.at var54 66)))
(assert (= "G" (str.at var1 915)))
(assert (= "s" (str.at var15 211)))
(assert (= "O" (str.at var2 728)))
(assert (= "b" (str.at var25 448)))
(assert (= "]" (str.at var59 66)))
(assert (= "e" (str.at var17 500)))
(assert (= "W" (str.at var1 374)))
(assert (= "q" (str.at var52 627)))
(assert (= "7" (str.at var21 235)))
(assert (= "u" (str.at var28 426)))
(assert (= "u" (str.at var41 806)))
(assert (= "C" (str.at var36 206)))
(assert (= "l" (str.at var6 181)))
(assert (= "u" (str.at var9 539)))
(assert (= "I" (str.at var45 489)))
(assert (= "E" (str.at var46 978)))
(assert (= "/" (str.at var0 59)))
(assert (= "p" (str.at var25 193)))
(assert (= "!" (str.at var8 509)))
(assert (= "F" (str.at var19 175)))
(assert (= "v" (str.at var7 893)))
(assert (= "/" (str.at var31 876)))
(assert (= "o" (str.at var28 441)))
(assert (= "N" (str.at var51 0)))
(assert (= "v" (str.at var51 68)))
(assert (= "l" (str.at var35 733)))
(assert (= "w" (str.at var2 780)))
(assert (= "Y" (str.at var51 922)))
(assert (= "U" (str.at var13 273)))
(assert (= "v" (str.at var37 876)))
(assert (= "X" (str.at var43 249)))
(assert (= "w" (str.at var24 598)))
(assert (= "r" (str.at var59 138)))
(assert (= "&" (str.at var53 12)))
(assert (= "9" (str.at var42 735)))
(assert (= "}" (str.at var22 437)))
(assert (= "S" (str.at var47 422)))
(assert (= "Q" (str.at var49 367)))
(assert (= "J" (str.at var15 609)))
(assert (= "c" (str.at var49 496)))
(assert (= "L" (str.at var34 570)))
(assert (= "X" (str.at var38 450)))
(assert (= "B" (str.at var7 160)))
(assert (= "C" (str.at var23 378)))
(assert (= "k" (str.at var33 24)))
(assert (= "z" (str.at var1 97)))
(assert (= "A" (str.at var28 28)))
(assert (= "N" (str.at var29 810)))
(assert (= "^" (str.at var56 527)))
(assert (= "|" (str.at var27 732)))
(assert (= "t" (str.at var27 671)))
(assert (= "=" (str.at var22 217)))
(assert (= "T" (str.at var10 702)))
(assert (= "a" (str.at var1 521)))
(assert (= "+" (str.at var15 639)))
(assert (= "F" (str.at var55 219)))
(assert (= "[" (str.at var5 529)))
(assert (= "M" (str.at var9 55)))
(assert (= "." (str.at var33 180)))
(assert (= ">" (str.at var22 786)))
(assert (= "8" (str.at var4 286)))
(assert (= "." (str.at var60 561)))
(assert (= "9" (str.at var0 117)))
(assert (= """" (str.at var41 378)))
(assert (= "$" (str.at var13 516)))
(assert (= "B" (str.at var40 732)))
(assert (= "/" (str.at var29 358)))
(assert (= "0" (str.at var1 836)))
(assert (= "g" (str.at var8 548)))
(assert (= "@" (str.at var39 420)))
(assert (= "c" (str.at var26 533)))
(assert (= "w" (str.at var55 404)))
(assert (= "3" (str.at var44 777)))
(assert (= "Y" (str.at var18 1)))
(assert (= "Z" (str.at var25 875)))
(assert (= "|" (str.at var9 108)))
(assert (= "^" (str.at var12 946)))
(assert (= "x" (str.at var52 940)))
(assert (= ":" (str.at var15 909)))
(assert (= "7" (str.at var59 109)))
(assert (= "k" (str.at var15 79)))
(assert (= "D" (str.at var17 875)))
(assert (= "j" (str.at var7 76)))
(assert (= "N" (str.at var16 518)))
(assert (= "x" (str.at var25 88)))
(assert (= "$" (str.at var3 58)))
(assert (= "A" (str.at var41 827)))
(assert (= "D" (str.at var28 357)))
(assert (= "#" (str.at var24 844)))
(assert (= "^" (str.at var6 125)))
(assert (= ";" (str.at var36 212)))
(assert (= "^" (str.at var23 233)))
(assert (= "O" (str.at var9 611)))
(assert (= "_" (str.at var31 64)))
(assert (= "{" (str.at var24 49)))
(assert (= "F" (str.at var59 71)))
(assert (= "9" (str.at var15 104)))
(assert (= "{" (str.at var40 608)))
(assert (= "?" (str.at var20 280)))
(assert (= "1" (str.at var23 327)))
(assert (= "m" (str.at var53 779)))
(assert (= "L" (str.at var40 988)))
(assert (= "x" (str.at var36 790)))
(assert (= "u" (str.at var55 411)))
(assert (= "I" (str.at var20 912)))
(assert (= "@" (str.at var31 464)))
(assert (= "~" (str.at var21 457)))
(assert (= "o" (str.at var3 867)))
(assert (= "H" (str.at var51 117)))
(assert (= "D" (str.at var58 608)))
(assert (= "z" (str.at var44 703)))
(assert (= "K" (str.at var51 318)))
(assert (= "z" (str.at var14 341)))
(assert (= "b" (str.at var45 755)))
(assert (= "T" (str.at var13 839)))
(assert (= "'" (str.at var44 9)))
(assert (= "V" (str.at var33 223)))
(assert (= "v" (str.at var58 773)))
(assert (= "7" (str.at var33 45)))
(assert (= "c" (str.at var29 592)))
(assert (= "#" (str.at var60 751)))
(assert (= "R" (str.at var7 222)))
(assert (= "g" (str.at var27 319)))
(assert (= "I" (str.at var24 806)))
(assert (= """" (str.at var54 820)))
(assert (= "}" (str.at var21 510)))
(assert (= "2" (str.at var32 382)))
(assert (= ")" (str.at var17 380)))
(assert (= "z" (str.at var29 86)))
(assert (= "a" (str.at var7 123)))
(assert (= "^" (str.at var17 391)))
(assert (= "o" (str.at var3 850)))
(assert (= "^" (str.at var57 539)))
(assert (= "P" (str.at var58 701)))
(assert (= "." (str.at var55 779)))
(assert (= "\\" (str.at var35 502)))
(assert (= "b" (str.at var11 62)))
(assert (= "J" (str.at var51 461)))
(assert (= "2" (str.at var12 480)))
(assert (= "k" (str.at var49 754)))
(assert (= "T" (str.at var7 130)))
(assert (= "b" (str.at var54 860)))
(assert (= "r" (str.at var46 179)))
(assert (= "0" (str.at var43 467)))
(assert (= "o" (str.at var8 537)))
(assert (= "w" (str.at var23 809)))
(assert (= "," (str.at var42 326)))
(assert (= "I" (str.at var60 515)))
(assert (= "j" (str.at var21 472)))
(assert (= "x" (str.at var35 22)))
(assert (= ")" (str.at var1 472)))
(assert (= "R" (str.at var55 114)))
(assert (= "V" (str.at var19 623)))
(assert (= "-" (str.at var54 106)))
(assert (= "7" (str.at var55 137)))
(assert (= "g" (str.at var52 74)))
(assert (= "Y" (str.at var38 471)))
(assert (= "s" (str.at var49 893)))
(assert (= "W" (str.at var7 104)))
(assert (= "W" (str.at var30 722)))
(assert (= "]" (str.at var43 571)))
(assert (= ";" (str.at var31 380)))
(assert (= "B" (str.at var29 563)))
(assert (= "j" (str.at var19 389)))
(assert (= "X" (str.at var3 73)))
(assert (= "d" (str.at var24 279)))
(assert (= "e" (str.at var50 186)))
(assert (= "t" (str.at var32 892)))
(assert (= "=" (str.at var8 690)))
(assert (= "\\" (str.at var48 598)))
(assert (= "^" (str.at var20 230)))
(assert (= "o" (str.at var14 381)))
(assert (= "(" (str.at var44 480)))
(assert (= "1" (str.at var56 209)))
(assert (= "n" (str.at var12 572)))
(assert (= "/" (str.at var10 632)))
(assert (= "_" (str.at var58 603)))
(assert (= "j" (str.at var59 459)))
(assert (= "4" (str.at var21 745)))
(assert (= "(" (str.at var37 451)))
(assert (= "h" (str.at var0 779)))
(assert (= "," (str.at var23 907)))
(assert (= "N" (str.at var50 232)))
(assert (= "{" (str.at var41 15)))
(assert (= "9" (str.at var32 688)))
(assert (= "q" (str.at var11 970)))
(assert (= "E" (str.at var51 732)))
(assert (= "y" (str.at var41 687)))
(assert (= ")" (str.at var22 196)))
(assert (= "7" (str.at var11 785)))
(assert (= "." (str.at var52 695)))
(assert (= "-" (str.at var58 604)))
(assert (= "v" (str.at var30 435)))
(assert (= "u" (str.at var30 744)))
(assert (= "#" (str.at var31 283)))
(assert (= "d" (str.at var59 670)))
(assert (= "c" (str.at var37 437)))
(assert (= "h" (str.at var18 162)))
(assert (= "Z" (str.at var11 919)))
(assert (= "X" (str.at var18 166)))
(assert (= "D" (str.at var16 426)))
(assert (= "y" (str.at var8 810)))
(assert (= "d" (str.at var31 731)))
(assert (= "c" (str.at var51 923)))
(assert (= ")" (str.at var5 577)))
(assert (= "A" (str.at var38 440)))
(assert (= "R" (str.at var38 611)))
(assert (= "?" (str.at var46 57)))
(assert (= "^" (str.at var27 52)))
(assert (= "!" (str.at var44 270)))
(assert (= "*" (str.at var1 326)))
(assert (= "u" (str.at var8 814)))
(assert (= "1" (str.at var32 829)))
(assert (= "S" (str.at var38 68)))
(assert (= "z" (str.at var1 36)))
(assert (= "j" (str.at var31 142)))
(assert (= "<" (str.at var58 533)))
(assert (= "s" (str.at var35 328)))
(assert (= """" (str.at var49 723)))
(assert (= "d" (str.at var55 798)))
(assert (= "K" (str.at var33 339)))
(assert (= "=" (str.at var51 755)))
(assert (= "<" (str.at var10 109)))
(assert (= "K" (str.at var24 579)))
(assert (= "l" (str.at var17 454)))
(assert (= "f" (str.at var34 353)))
(assert (= "<" (str.at var36 965)))
(assert (= "l" (str.at var39 24)))
(assert (= "*" (str.at var13 453)))
(assert (= "&" (str.at var53 516)))
(assert (= "`" (str.at var30 365)))
(assert (= "A" (str.at var44 108)))
(assert (= "-" (str.at var0 473)))
(assert (= "S" (str.at var8 185)))
(assert (= "(" (str.at var1 914)))
(assert (= "G" (str.at var20 834)))
(assert (= "7" (str.at var9 162)))
(assert (= "9" (str.at var52 341)))
(assert (= "?" (str.at var38 919)))
(assert (= """" (str.at var22 288)))
(assert (= "a" (str.at var8 872)))
(assert (= "}" (str.at var29 507)))
(assert (= "c" (str.at var47 341)))
(assert (= "x" (str.at var33 335)))
(assert (= "H" (str.at var6 293)))
(assert (= "H" (str.at var33 911)))
(assert (= "%" (str.at var56 701)))
(assert (= "d" (str.at var11 990)))
(assert (= "&" (str.at var25 630)))
(assert (= "%" (str.at var8 260)))
(assert (= "a" (str.at var26 336)))
(assert (= "D" (str.at var4 85)))
(assert (= "V" (str.at var23 990)))
(assert (= "]" (str.at var37 972)))
(assert (= "J" (str.at var55 654)))
(assert (= "-" (str.at var21 216)))
(assert (= "r" (str.at var36 623)))
(assert (= "8" (str.at var58 222)))
(assert (= "'" (str.at var44 784)))
(assert (= "_" (str.at var5 873)))
(assert (= "R" (str.at var49 798)))
(assert (= "?" (str.at var38 449)))
(assert (= "r" (str.at var39 545)))
(assert (= "`" (str.at var51 277)))
(assert (= "D" (str.at var19 54)))
(assert (= "I" (str.at var54 291)))
(assert (= "D" (str.at var16 882)))
(assert (= "~" (str.at var46 641)))
(assert (= "u" (str.at var51 407)))
(assert (= "3" (str.at var10 141)))
(assert (= "~" (str.at var24 277)))
(assert (= "V" (str.at var52 386)))
(assert (= "A" (str.at var9 685)))
(assert (= "f" (str.at var27 556)))
(assert (= "," (str.at var16 883)))
(assert (= "9" (str.at var26 179)))
(assert (= "-" (str.at var43 556)))
(assert (= "v" (str.at var30 551)))
(assert (= "w" (str.at var1 980)))
(assert (= "B" (str.at var25 532)))
(assert (= "d" (str.at var50 853)))
(assert (= "|" (str.at var7 432)))
(assert (= "G" (str.at var0 772)))
(assert (= "-" (str.at var46 71)))
(assert (= "i" (str.at var10 873)))
(assert (= "%" (str.at var28 876)))
(assert (= "K" (str.at var12 684)))
(assert (= "d" (str.at var6 956)))
(assert (= "%" (str.at var17 678)))
(assert (= "L" (str.at var46 132)))
(assert (= "{" (str.at var23 555)))
(assert (= "D" (str.at var40 860)))
(assert (= "b" (str.at var6 297)))
(assert (= "^" (str.at var40 644)))
(assert (= "!" (str.at var0 344)))
(assert (= "F" (str.at var31 420)))
(assert (= "d" (str.at var15 199)))
(assert (= "@" (str.at var47 838)))
(assert (= "8" (str.at var2 342)))
(assert (= "J" (str.at var7 928)))
(assert (= "y" (str.at var42 547)))
(assert (= "k" (str.at var26 975)))
(assert (= "}" (str.at var44 487)))
(assert (= "4" (str.at var45 532)))
(assert (= "u" (str.at var12 838)))
(assert (= "9" (str.at var8 613)))
(assert (= "C" (str.at var12 885)))
(assert (= "[" (str.at var43 60)))
(assert (= "C" (str.at var25 708)))
(assert (= "R" (str.at var43 299)))
(assert (= "T" (str.at var46 29)))
(assert (= "u" (str.at var20 800)))
(assert (= "r" (str.at var36 946)))
(assert (= "j" (str.at var7 702)))
(assert (= "1" (str.at var55 677)))
(assert (= "X" (str.at var41 902)))
(assert (= "K" (str.at var5 294)))
(assert (= "*" (str.at var19 347)))
(assert (= "u" (str.at var20 260)))
(assert (= "p" (str.at var26 137)))
(assert (= "h" (str.at var18 945)))
(assert (= "B" (str.at var10 866)))
(assert (= "D" (str.at var3 104)))
(assert (= "e" (str.at var30 237)))
(assert (= "s" (str.at var2 575)))
(assert (= "e" (str.at var0 489)))
(assert (= "(" (str.at var60 873)))
(assert (= "k" (str.at var22 488)))
(assert (= "m" (str.at var9 768)))
(assert (= "O" (str.at var45 481)))
(assert (= "2" (str.at var52 645)))
(assert (= "f" (str.at var53 307)))
(assert (= "v" (str.at var11 120)))
(assert (= "z" (str.at var48 485)))
(assert (= "w" (str.at var36 585)))
(assert (= "V" (str.at var18 907)))
(assert (= "t" (str.at var13 6)))
(assert (= "w" (str.at var21 566)))
(assert (= "'" (str.at var42 473)))
(assert (= "4" (str.at var18 63)))
(assert (= "A" (str.at var56 381)))
(assert (= "U" (str.at var34 452)))
(assert (= "?" (str.at var55 70)))
(assert (= "(" (str.at var11 987)))
(assert (= "M" (str.at var0 145)))
(assert (= "D" (str.at var14 234)))
(assert (= "g" (str.at var11 759)))
(assert (= "b" (str.at var9 351)))
(assert (= "1" (str.at var59 308)))
(assert (= "`" (str.at var28 230)))
(assert (= "@" (str.at var25 15)))
(assert (= "U" (str.at var23 190)))
(assert (= "%" (str.at var53 83)))
(assert (= """" (str.at var14 295)))
(assert (= "E" (str.at var3 519)))
(assert (= "@" (str.at var60 67)))
(assert (= "Z" (str.at var39 200)))
(assert (= "Q" (str.at var41 76)))
(assert (= "t" (str.at var54 391)))
(assert (= "o" (str.at var9 502)))
(assert (= "A" (str.at var40 338)))
(assert (= "[" (str.at var57 124)))
(assert (= "Y" (str.at var10 816)))
(assert (= "y" (str.at var44 949)))
(assert (= "U" (str.at var52 488)))
(assert (= "," (str.at var6 936)))
(assert (= "k" (str.at var42 535)))
(assert (= "_" (str.at var18 962)))
(assert (= "4" (str.at var10 66)))
(assert (= "S" (str.at var56 4)))
(assert (= "|" (str.at var34 376)))
(assert (= "c" (str.at var27 904)))
(assert (= "V" (str.at var10 529)))
(assert (= "%" (str.at var20 868)))
(assert (= "v" (str.at var14 584)))
(assert (= "i" (str.at var55 669)))
(assert (= "s" (str.at var52 558)))
(assert (= "I" (str.at var55 603)))
(assert (= "0" (str.at var2 536)))
(assert (= "5" (str.at var24 531)))
(assert (= "3" (str.at var59 245)))
(assert (= "g" (str.at var53 343)))
(assert (= "k" (str.at var15 712)))
(assert (= "(" (str.at var33 614)))
(assert (= "Z" (str.at var39 99)))
(assert (= "a" (str.at var4 335)))
(assert (= "U" (str.at var18 527)))
(assert (= "X" (str.at var56 435)))
(assert (= "x" (str.at var50 958)))
(assert (= "M" (str.at var45 107)))
(assert (= "f" (str.at var26 979)))
(assert (= "h" (str.at var7 728)))
(assert (= "&" (str.at var21 17)))
(assert (= "b" (str.at var17 463)))
(assert (= "[" (str.at var5 944)))
(assert (= "T" (str.at var53 114)))
(assert (= "4" (str.at var59 772)))
(assert (= "*" (str.at var25 848)))
(assert (= "0" (str.at var10 48)))
(assert (= "_" (str.at var43 751)))
(assert (= "$" (str.at var15 515)))
(assert (= "W" (str.at var50 859)))
(assert (= "j" (str.at var24 94)))
(assert (= "@" (str.at var43 170)))
(assert (= "a" (str.at var16 942)))
(assert (= "X" (str.at var60 630)))
(assert (= "n" (str.at var45 575)))
(assert (= "q" (str.at var4 104)))
(assert (= "F" (str.at var51 514)))
(assert (= "y" (str.at var57 611)))
(assert (= "a" (str.at var1 833)))
(assert (= "7" (str.at var13 812)))
(assert (= "?" (str.at var48 236)))
(assert (= "a" (str.at var44 782)))
(assert (= "k" (str.at var46 980)))
(assert (= "d" (str.at var58 669)))
(assert (= "x" (str.at var54 930)))
(assert (= "I" (str.at var2 972)))
(assert (= "=" (str.at var55 230)))
(assert (= "x" (str.at var60 768)))
(assert (= "n" (str.at var35 44)))
(assert (= "'" (str.at var4 223)))
(assert (= "4" (str.at var3 28)))
(assert (= "(" (str.at var40 863)))
(assert (= "Y" (str.at var11 635)))
(assert (= "w" (str.at var40 73)))
(assert (= "{" (str.at var15 400)))
(assert (= "p" (str.at var35 501)))
(assert (= "g" (str.at var18 707)))
(assert (= "8" (str.at var32 501)))
(assert (= "A" (str.at var49 925)))
(assert (= ")" (str.at var57 465)))
(assert (= "@" (str.at var24 833)))
(assert (= "[" (str.at var51 171)))
(assert (= "f" (str.at var7 832)))
(assert (= "g" (str.at var23 832)))
(assert (= "." (str.at var39 432)))
(assert (= "," (str.at var28 511)))
(assert (= "%" (str.at var55 909)))
(assert (= "i" (str.at var41 994)))
(assert (= "=" (str.at var60 851)))
(assert (= "a" (str.at var31 264)))
(assert (= "v" (str.at var55 926)))
(assert (= "c" (str.at var34 628)))
(assert (= "H" (str.at var60 786)))
(assert (= "S" (str.at var22 213)))
(assert (= "v" (str.at var30 328)))
(assert (= "4" (str.at var27 646)))
(assert (= "x" (str.at var46 267)))
(assert (= "A" (str.at var17 480)))
(assert (= "]" (str.at var22 350)))
(assert (= "^" (str.at var41 586)))
(assert (= "I" (str.at var45 660)))
(assert (= "l" (str.at var48 278)))
(assert (= "V" (str.at var54 593)))
(assert (= "@" (str.at var34 856)))
(assert (= "3" (str.at var22 828)))
(assert (= "-" (str.at var44 111)))
(assert (= """" (str.at var46 396)))
(assert (= "j" (str.at var27 380)))
(assert (= "G" (str.at var13 537)))
(assert (= "?" (str.at var49 580)))
(assert (= "X" (str.at var26 378)))
(assert (= "|" (str.at var50 289)))
(assert (= ";" (str.at var4 913)))
(assert (= "]" (str.at var51 750)))
(assert (= "2" (str.at var52 581)))
(assert (= "f" (str.at var58 599)))
(assert (= "F" (str.at var44 974)))
(assert (= "-" (str.at var25 938)))
(assert (= "'" (str.at var11 449)))
(assert (= "[" (str.at var50 964)))
(assert (= "Z" (str.at var3 329)))
(assert (= "8" (str.at var55 746)))
(assert (= "1" (str.at var4 954)))
(assert (= "J" (str.at var22 565)))
(assert (= "J" (str.at var9 962)))
(assert (= "+" (str.at var51 392)))
(assert (= "c" (str.at var32 419)))
(assert (= "7" (str.at var18 668)))
(assert (= "G" (str.at var30 228)))
(assert (= "`" (str.at var49 932)))
(assert (= "!" (str.at var40 809)))
(assert (= "p" (str.at var23 493)))
(assert (= "J" (str.at var35 594)))
(assert (= "g" (str.at var11 246)))
(assert (= "m" (str.at var9 546)))
(assert (= "6" (str.at var56 671)))
(assert (= "d" (str.at var3 302)))
(assert (= "b" (str.at var45 425)))
(assert (= "{" (str.at var39 668)))
(assert (= "@" (str.at var52 719)))
(assert (= "'" (str.at var51 954)))
(assert (= "M" (str.at var48 46)))
(assert (= "V" (str.at var18 739)))
(assert (= "W" (str.at var2 28)))
(assert (= "o" (str.at var3 516)))
(assert (= "8" (str.at var6 342)))
(assert (= "/" (str.at var7 335)))
(assert (= "9" (str.at var53 812)))
(assert (= "k" (str.at var51 925)))
(assert (= "#" (str.at var42 593)))
(assert (= "!" (str.at var30 907)))
(assert (= "S" (str.at var32 591)))
(assert (= "u" (str.at var52 364)))
(assert (= "`" (str.at var23 758)))
(assert (= "U" (str.at var56 628)))
(assert (= "j" (str.at var0 53)))
(assert (= "y" (str.at var18 436)))
(assert (= "V" (str.at var36 956)))
(assert (= "," (str.at var34 823)))
(assert (= ")" (str.at var43 306)))
(assert (= "{" (str.at var39 817)))
(assert (= "6" (str.at var4 501)))
(assert (= "." (str.at var59 160)))
(assert (= "q" (str.at var7 785)))
(assert (= "c" (str.at var2 139)))
(assert (= "F" (str.at var59 300)))
(assert (= "J" (str.at var20 816)))
(assert (= "q" (str.at var36 375)))
(assert (= "0" (str.at var31 768)))
(assert (= "l" (str.at var44 291)))
(assert (= "@" (str.at var34 512)))
(assert (= "F" (str.at var3 634)))
(assert (= "'" (str.at var10 384)))
(assert (= "?" (str.at var53 544)))
(assert (= "A" (str.at var30 206)))
(assert (= "." (str.at var29 548)))
(assert (= "," (str.at var33 342)))
(assert (= "H" (str.at var5 448)))
(assert (= "/" (str.at var42 702)))
(assert (= "h" (str.at var2 544)))
(assert (= "`" (str.at var36 9)))
(assert (= "-" (str.at var47 154)))
(assert (= "+" (str.at var52 480)))
(assert (= "-" (str.at var58 789)))
(assert (= "L" (str.at var13 602)))
(assert (= "4" (str.at var51 202)))
(assert (= "/" (str.at var29 322)))
(assert (= "k" (str.at var9 1)))
(assert (= "r" (str.at var43 832)))
(assert (= "w" (str.at var45 99)))
(check-sat)